int NumberPatients = 135
int NumberOfRooms = 12
int NumberSurgeons = 10
int NumberOfDays = 6
Duration = [76,32,66,103,66,47,119,46,32,277,101,217,55,107,66,47,47,101,157,119,98,46,32,103,32,32,67,60,119,59,249,66,32,66,210,85,31,140,68,72,87,103,117,46,67,100,32,50,50,168,98,98,98,217,114,98,47,210,71,256,263,59,33,66,59,59,103,32,256,46,85,98,93,78,105,119,166,47,112,103,138,32,47,119,47,114,103,60,119,98,98,66,98,103,60,210,78,93,98,47,260,66,47,38,201,32,117,238,47,201,98,46,40,78,58,30,98,66,86,208,47,98,66,131,32,47,32,85,98,101,98,86,31,98,30];
Priority = [0,0,0,0,0,0,0,0,0,0,0,0,0,0,0,0,0,0,0,0,0,0,0,0,0,0,0,0,0,0,0,0,0,0,0,0,0,0,0,0,0,0,0,0,0,0,0,0,0,0,0,0,0,0,0,0,0,0,0,0,0,0,0,0,0,0,0,0,0,0,0,0,0,0,0,0,0,0,0,0,0,0,0,0,0,0,0,0,0,0,0,0,0,0,0,0,0,0,0,0,0,0,0,0,0,0,0,0,0,0,0,1,0,0,0,0,0,0,0,0,0,0,0,1,0,0,0,0,0,0,0,0,0,0,0];
Waiting = [338,56,225,84,59,207,102,57,150,487,66,382,35,1047,51,80,107,190,164,338,24,358,204,45,205,177,163,80,361,39,190,211,155,95,35,213,394,56,480,375,312,120,81,78,123,169,59,87,183,46,158,113,24,135,164,24,39,79,417,162,58,338,71,211,324,387,74,151,150,63,25,80,312,256,43,37,135,204,84,338,116,23,66,438,80,22,52,317,281,67,80,59,190,37,65,161,200,87,73,150,148,417,137,428,438,67,57,137,155,43,67,428,183,177,98,155,78,53,141,116,190,396,1047,120,190,106,144,158,338,178,259,127,58,43,170];
Surgeon = [7,1,9,3,7,1,1,3,8,7,2,3,5,6,2,4,2,4,1,2,5,4,5,1,14,5,9,1,3,6,1,5,5,2,4,11,4,6,1,6,6,6,6,6,5,10,3,6,6,6,1,3,5,1,10,6,1,6,1,10,1,1,1,5,5,6,3,6,4,6,5,2,2,5,6,3,3,5,1,2,4,3,5,3,2,3,5,1,6,2,6,3,5,3,6,12,1,5,5,4,9,3,2,4,9,4,6,1,1,3,2,4,3,6,5,2,5,4,6,7,9,5,6,13,3,7,5,5,1,1,1,6,2,5,13];
BlockAvailability = [[[0,0],[0,0],[0,0],[0,0],[0,1],[1,0],[1,0],[0,0],[1,0],[0,0],[0,0],[0,1]],[[1,0],[0,1],[0,0],[0,0],[0,1],[0,0],[1,0],[0,0],[0,1],[0,0],[0,0],[1,0]],[[0,0],[0,0],[0,1],[0,0],[1,0],[0,1],[1,0],[0,0],[0,1],[1,0],[0,0],[0,0]],[[0,0],[0,1],[0,1],[1,1],[0,1],[0,0],[0,0],[0,0],[0,0],[1,0],[0,0],[1,1]],[[0,1],[0,1],[0,0],[0,0],[0,0],[0,0],[0,0],[0,0],[0,0],[0,0],[0,0],[0,0]],[[0,0],[1,1],[0,0],[0,0],[0,0],[1,0],[1,1],[0,0],[0,1],[0,0],[0,0],[0,0]]];
SurgeonAvailability = [[[1,1],[0,1],[0,0],[1,0],[1,1],[1,1]],[[1,1],[0,1],[1,0],[0,1],[1,0],[0,1]],[[1,0],[0,1],[0,1],[1,0],[1,1],[0,1]],[[1,1],[1,1],[1,0],[1,1],[1,0],[1,1]],[[0,0],[0,1],[0,1],[0,1],[1,0],[1,1]],[[1,1],[1,1],[1,1],[0,1],[1,1],[0,0]],[[0,1],[1,1],[1,1],[1,1],[0,1],[0,0]],[[1,0],[1,1],[1,1],[1,0],[0,1],[1,0]],[[0,1],[0,1],[1,1],[1,1],[0,1],[0,1]],[[1,0],[0,1],[1,1],[1,1],[1,1],[1,1]]];
